p cnf 75 20

c szerkeszto
c abafi bea
1 2 3 4 5 0
c dalos rezso
6 7 8 9 10 0 
c gemes imre
11 12 13 14 15 0
c joszkin ede
16 17 18 19 20 0
c palos kata
21 22 23 24 25 0

c konyv cime
c csengo
26 27 28 29 30 0 
c dobos torta
31 32 33 34 35 0
c maranyfejek
36 37 38 39 40 0 
c tul mindenen
41 42 43 44 45 0 
c zene-bona
46 47 48 49 50 0

c ar
c 1500ft
51 52 53 54 55 0
c 1700ft
56 57 58 59 60 0 
c 2000ft
61 62 63 64 65 0 
c 2200ft
66 67 68 69 70 0 
c 2350ft
71 72 73 74 75 0